(set-logic QF_S)
(declare-fun V2 () String )
(declare-fun V28 () String )
(declare-fun V8 () String )
(declare-fun V62 () String )
(declare-fun V6 () String )
(declare-fun V24 () String )
(declare-fun V51 () String )
(declare-fun V41 () String )
(declare-fun V11 () String )
(declare-fun V0 () String )
(declare-fun V10 () String )
(declare-fun V49 () String )
(declare-fun V44 () String )
(declare-fun V59 () String )
(declare-fun V18 () String )
(declare-fun V17 () String )
(declare-fun V34 () String )
(declare-fun V12 () String )
(declare-fun V50 () String )
(declare-fun V43 () String )
(declare-fun V3 () String )
(declare-fun V57 () String )
(declare-fun V54 () String )
(declare-fun V58 () String )
(declare-fun V64 () String )
(declare-fun V60 () String )
(declare-fun V45 () String )
(declare-fun V26 () String )
(declare-fun V38 () String )
(declare-fun V25 () String )
(declare-fun V40 () String )
(declare-fun V20 () String )
(declare-fun V19 () String )
(declare-fun V48 () String )
(declare-fun V37 () String )
(declare-fun V21 () String )
(declare-fun V14 () String )
(declare-fun V29 () String )
(declare-fun V30 () String )
(declare-fun V5 () String )
(declare-fun V47 () String )
(declare-fun V33 () String )
(declare-fun V63 () String )
(declare-fun V27 () String )
(declare-fun V15 () String )
(declare-fun V7 () String )
(declare-fun V4 () String )
(declare-fun V52 () String )
(declare-fun V61 () String )
(declare-fun V1 () String )
(declare-fun V22 () String )
(declare-fun V35 () String )
(declare-fun V13 () String )
(declare-fun V46 () String )
(declare-fun V23 () String )
(declare-fun V16 () String )
(declare-fun V39 () String )
(declare-fun V31 () String )
(declare-fun V42 () String )
(declare-fun V53 () String )
(declare-fun V36 () String )
(declare-fun V32 () String )
(declare-fun V9 () String )
(assert (= "" "W" ) )
(assert (= "" V43 ) )
(assert (= "" V27 ) )
(assert (= "" V40 ) )
(assert (= "" (str.++ (str.++ V52 V53 ) V54 ) ) )
(assert (= "=" V0 ) )
(assert (= "M" V10 ) )
(assert (= "U" V1 ) )
(assert (= "W" V14 ) )
(assert (= V51 (str.++ (str.++ V60 "m" ) V61 ) ) )
(assert (= V12 (str.++ (str.++ V60 "M" ) V61 ) ) )
(assert (= V54 V50 ) )
(assert (= V64 (str.++ "w" V49 ) ) )
(assert (= V64 (str.++ (str.++ V62 "w" ) V63 ) ) )
(assert (= V49 (str.++ (str.++ V62 "W" ) V63 ) ) )
(assert (= V59 (str.++ (str.++ V57 "u" ) V58 ) ) )
(assert (= V3 (str.++ (str.++ V57 "U" ) V58 ) ) )
(assert (= V39 V29 ) )
(assert (= V41 V31 ) )
(assert (= V40 V30 ) )
(assert (= V5 (str.++ (str.++ V45 V46 ) V47 ) ) )
(assert (= V5 (str.++ (str.++ V23 V24 ) V25 ) ) )
(assert (= V5 (str.++ (str.++ V33 "U" ) V34 ) ) )
(assert (= V5 (str.++ (str.++ V17 V18 ) V19 ) ) )
(assert (= V5 (str.++ (str.++ V2 V3 ) V4 ) ) )
(assert (= V7 (str.++ (str.++ V42 V43 ) V44 ) ) )
(assert (= V7 (str.++ (str.++ V20 V21 ) V22 ) ) )
(assert (= V7 (str.++ (str.++ V26 V27 ) V28 ) ) )
(assert (= V7 (str.++ (str.++ V35 "M" ) V36 ) ) )
(assert (= V7 (str.++ (str.++ V11 V12 ) V13 ) ) )
(assert (= V9 (str.++ (str.++ V37 "=" ) V38 ) ) )
(assert (= V9 (str.++ (str.++ V15 V5 ) V16 ) ) )
(assert (= V9 (str.++ (str.++ V6 V7 ) V8 ) ) )
(assert (= V32 (str.++ (str.++ V39 V40 ) V41 ) ) )
(assert (= V32 (str.++ (str.++ V29 V30 ) V31 ) ) )
(assert (= (str.++ V51 V21 ) (str.++ (str.++ V52 V53 ) V54 ) ) )
(assert (= (str.++ V51 V21 ) (str.++ (str.++ V48 V49 ) V50 ) ) )
(assert (= (str.++ V40 V41 ) (str.++ V30 V31 ) ) )
( check-sat )
